Graphene
1.45000000000000
0.8510615081620743   -1.4740817725029074    0.0000000000000000
0.8510615081620743    1.4740817725029074    0.0000000000000000
0.0000000000000000    0.0000000000000000   10.0000000000000000
C
2
Direct
0.0000000000000000  0.0000000000000000  0.0000000000000000
0.6666666666666643  0.3333333333333357  0.0000000000000000
