C B N                                   
   2.4932754657000000     
     1.0005752824371255   -0.0000000000000022    0.0000000000000000
    -0.5002876412185610    0.8665236129893419    0.0000000000000000
     0.0000000000000000    0.0000000000000000   10.6036349242260588
   C    B    N 
     2     2     2
Direct
  0.0000000000000000  0.0000000000000000  0.5000000000000000
  0.3333333329999988  0.6666666670000012  0.5000000000000000
  0.0000000000000000  0.0000000000000000  0.3709964649675470
  0.0000000000000000  0.0000000000000000  0.6290035350324530
  0.6666666670000012  0.3333333329999988  0.3709622077893471
  0.6666666670000012  0.3333333329999988  0.6290377922106529

  0.00000000E+00  0.00000000E+00  0.00000000E+00
  0.00000000E+00  0.00000000E+00  0.00000000E+00
  0.00000000E+00  0.00000000E+00  0.00000000E+00
  0.00000000E+00  0.00000000E+00  0.00000000E+00
  0.00000000E+00  0.00000000E+00  0.00000000E+00
  0.00000000E+00  0.00000000E+00  0.00000000E+00
