After rotation
1.0
   5.816008004981256    0.000000000000000    0.000000000000000
   0.000000000000000    7.948183285836880    0.000000000000000
  -2.774278369877781    0.000000000000001    6.779289713867272
Bi O
8 12
Direct
   0.519556935748653    0.190540391455222    0.368035517736438
   0.519556935748653    0.309459608544771    0.868035517736438
   0.480443064251347    0.690540391455237    0.131964482263562
   0.480443064251347    0.809459608544763    0.631964482263562
   0.041462554156098    0.046674670933228    0.775646198709929
   0.041462554156098    0.453325329066772    0.275646198709929
   0.958537445843902    0.546674670933228    0.724353801290071
   0.958537445843902    0.953325329066772    0.224353801290064
   0.776402544355093    0.294913790716265    0.706715272006754
   0.776402544355093    0.205086209283735    0.206715272006754
   0.223597455644906    0.794913790716265    0.793284727993246
   0.223597455644906    0.705086209283735    0.293284727993246
   0.235223491904094    0.050599231417145    0.123054106712601
   0.235223491904094    0.449400768582855    0.623054106712594
   0.764776508095906    0.550599231417145    0.376945893287406
   0.764776508095906    0.949400768582855    0.876945893287406
   0.271871571832783    0.033510929261638    0.514149770557843
   0.271871571832783    0.466489070738362    0.014149770557843
   0.728128428167203    0.533510929261624    0.985850229442157
   0.728128428167203    0.966489070738376    0.485850229442150

