Single-layer black phosphorus
   1.000000000000000
   4.666378861398885    0.000000000000000    0.000000000000000
   0.000000000000000    3.298659769754581    0.000000000000000
   0.000000000000000    0.000000000000000   20.000000000000000
 P
 4
Direct
   0.091220189082008    0.000000000000000    0.052326156446094
  -0.091220189082008    0.000000000000000   -0.052326156446094
   0.591220189082008    0.500000000000000   -0.052326156446094
  -0.591220189082008    0.500000000000000    0.052326156446094
