GaN
   1.000000000000000
   3.154947067177847    0.000000000000000    0.000000000000000
  -1.577473533588923    2.732264307771225    0.000000000000000
   0.000000000000000    0.000000000000000    5.144532622252125
Ga  N
 2  2
Direct
   0.333333333333333    0.666666666666667    0.000000000000000
   0.666666666666667    0.333333333333333    0.500000000000000
   0.333333333333333    0.666666666666667    0.386036951356903
   0.666666666666667    0.333333333333333    0.886036951356903
