Pmmn B structure                        
   1.00000000000000     
     4.5218403633788480    0.0000000000000000    0.0000000000000000
     0.0000000000000000    3.2545650925364908    0.0000000000000000
     0.0000000000000000    0.0000000000000000   20.0000000000000000
   B 
     8
Direct
  0.5000000000000000  0.2473249946537308  0.5552355366707218
  0.0000000000000000  0.2526750053462692  0.4447644633292782
  0.1839475597248992  0.5000000000000000  0.5198041726941440
  0.3160524402751008  0.0000000000000000  0.4801958273058489
  0.8160524402751008  0.5000000000000000  0.5198041726941440
  0.5000000000000000  0.7526750053462692  0.5552355366707218
  0.6839475597248992  0.0000000000000000  0.4801958273058489
  0.0000000000000000  0.7473249946537308  0.4447644633292782
 
  0.00000000E+00  0.00000000E+00  0.00000000E+00
  0.00000000E+00  0.00000000E+00  0.00000000E+00
  0.00000000E+00  0.00000000E+00  0.00000000E+00
  0.00000000E+00  0.00000000E+00  0.00000000E+00
  0.00000000E+00  0.00000000E+00  0.00000000E+00
  0.00000000E+00  0.00000000E+00  0.00000000E+00
  0.00000000E+00  0.00000000E+00  0.00000000E+00
  0.00000000E+00  0.00000000E+00  0.00000000E+00
